(set-logic QF_LRA)
(declare-fun T1 () Real )
(declare-fun T2 () Real )
(declare-fun T3 () Real )
(declare-fun T4 () Real )
(declare-fun T5 () Real )
(declare-fun T6 () Real )
(declare-fun Z () Real )
(assert ( and 
(or ( <= ( + T1 70 ) T2 ) ( <= ( + T2 71 ) T1 ) )
(or ( <= ( + T1 106 )  ( + T2 71 ) ) ( <= ( + T2 124 )( + T1 70 ) ) )
(or ( <= ( + T1 192 )  ( + T2 124 ) ) ( <= ( + T2 192 )( + T1 106 ) ) )
(or ( <= ( + T1 211 )  ( + T2 192 ) ) ( <= ( + T2 256 )( + T1 192 ) ) )
(or ( <= ( + T1 70 ) T3 ) ( <= ( + T3 36 ) T1 ) )
(or ( <= ( + T1 106 )  ( + T3 36 ) ) ( <= ( + T3 70 )( + T1 70 ) ) )
(or ( <= ( + T1 192 )  ( + T3 70 ) ) ( <= ( + T3 76 )( + T1 106 ) ) )
(or ( <= ( + T1 211 )  ( + T3 76 ) ) ( <= ( + T3 139 )( + T1 192 ) ) )
(or ( <= ( + T1 70 ) T4 ) ( <= ( + T4 1 ) T1 ) )
(or ( <= ( + T1 106 )  ( + T4 1 ) ) ( <= ( + T4 29 )( + T1 70 ) ) )
(or ( <= ( + T1 192 )  ( + T4 29 ) ) ( <= ( + T4 104 )( + T1 106 ) ) )
(or ( <= ( + T1 211 )  ( + T4 104 ) ) ( <= ( + T4 186 )( + T1 192 ) ) )
(or ( <= ( + T1 70 ) T5 ) ( <= ( + T5 85 ) T1 ) )
(or ( <= ( + T1 106 )  ( + T5 85 ) ) ( <= ( + T5 163 )( + T1 70 ) ) )
(or ( <= ( + T1 192 )  ( + T5 163 ) ) ( <= ( + T5 217 )( + T1 106 ) ) )
(or ( <= ( + T1 211 )  ( + T5 217 ) ) ( <= ( + T5 275 )( + T1 192 ) ) )
(or ( <= ( + T1 70 ) T6 ) ( <= ( + T6 77 ) T1 ) )
(or ( <= ( + T1 106 )  ( + T6 77 ) ) ( <= ( + T6 168 )( + T1 70 ) ) )
(or ( <= ( + T1 192 )  ( + T6 168 ) ) ( <= ( + T6 181 )( + T1 106 ) ) )
(or ( <= ( + T1 211 )  ( + T6 181 ) ) ( <= ( + T6 266 )( + T1 192 ) ) )
(or ( <= ( + T2 71 ) T3 ) ( <= ( + T3 36 ) T2 ) )
(or ( <= ( + T2 124 )  ( + T3 36 ) ) ( <= ( + T3 70 )( + T2 71 ) ) )
(or ( <= ( + T2 192 )  ( + T3 70 ) ) ( <= ( + T3 76 )( + T2 124 ) ) )
(or ( <= ( + T2 256 )  ( + T3 76 ) ) ( <= ( + T3 139 )( + T2 192 ) ) )
(or ( <= ( + T2 71 ) T4 ) ( <= ( + T4 1 ) T2 ) )
(or ( <= ( + T2 124 )  ( + T4 1 ) ) ( <= ( + T4 29 )( + T2 71 ) ) )
(or ( <= ( + T2 192 )  ( + T4 29 ) ) ( <= ( + T4 104 )( + T2 124 ) ) )
(or ( <= ( + T2 256 )  ( + T4 104 ) ) ( <= ( + T4 186 )( + T2 192 ) ) )
(or ( <= ( + T2 71 ) T5 ) ( <= ( + T5 85 ) T2 ) )
(or ( <= ( + T2 124 )  ( + T5 85 ) ) ( <= ( + T5 163 )( + T2 71 ) ) )
(or ( <= ( + T2 192 )  ( + T5 163 ) ) ( <= ( + T5 217 )( + T2 124 ) ) )
(or ( <= ( + T2 256 )  ( + T5 217 ) ) ( <= ( + T5 275 )( + T2 192 ) ) )
(or ( <= ( + T2 71 ) T6 ) ( <= ( + T6 77 ) T2 ) )
(or ( <= ( + T2 124 )  ( + T6 77 ) ) ( <= ( + T6 168 )( + T2 71 ) ) )
(or ( <= ( + T2 192 )  ( + T6 168 ) ) ( <= ( + T6 181 )( + T2 124 ) ) )
(or ( <= ( + T2 256 )  ( + T6 181 ) ) ( <= ( + T6 266 )( + T2 192 ) ) )
(or ( <= ( + T3 36 ) T4 ) ( <= ( + T4 1 ) T3 ) )
(or ( <= ( + T3 70 )  ( + T4 1 ) ) ( <= ( + T4 29 )( + T3 36 ) ) )
(or ( <= ( + T3 76 )  ( + T4 29 ) ) ( <= ( + T4 104 )( + T3 70 ) ) )
(or ( <= ( + T3 139 )  ( + T4 104 ) ) ( <= ( + T4 186 )( + T3 76 ) ) )
(or ( <= ( + T3 36 ) T5 ) ( <= ( + T5 85 ) T3 ) )
(or ( <= ( + T3 70 )  ( + T5 85 ) ) ( <= ( + T5 163 )( + T3 36 ) ) )
(or ( <= ( + T3 76 )  ( + T5 163 ) ) ( <= ( + T5 217 )( + T3 70 ) ) )
(or ( <= ( + T3 139 )  ( + T5 217 ) ) ( <= ( + T5 275 )( + T3 76 ) ) )
(or ( <= ( + T3 36 ) T6 ) ( <= ( + T6 77 ) T3 ) )
(or ( <= ( + T3 70 )  ( + T6 77 ) ) ( <= ( + T6 168 )( + T3 36 ) ) )
(or ( <= ( + T3 76 )  ( + T6 168 ) ) ( <= ( + T6 181 )( + T3 70 ) ) )
(or ( <= ( + T3 139 )  ( + T6 181 ) ) ( <= ( + T6 266 )( + T3 76 ) ) )
(or ( <= ( + T4 1 ) T5 ) ( <= ( + T5 85 ) T4 ) )
(or ( <= ( + T4 29 )  ( + T5 85 ) ) ( <= ( + T5 163 )( + T4 1 ) ) )
(or ( <= ( + T4 104 )  ( + T5 163 ) ) ( <= ( + T5 217 )( + T4 29 ) ) )
(or ( <= ( + T4 186 )  ( + T5 217 ) ) ( <= ( + T5 275 )( + T4 104 ) ) )
(or ( <= ( + T4 1 ) T6 ) ( <= ( + T6 77 ) T4 ) )
(or ( <= ( + T4 29 )  ( + T6 77 ) ) ( <= ( + T6 168 )( + T4 1 ) ) )
(or ( <= ( + T4 104 )  ( + T6 168 ) ) ( <= ( + T6 181 )( + T4 29 ) ) )
(or ( <= ( + T4 186 )  ( + T6 181 ) ) ( <= ( + T6 266 )( + T4 104 ) ) )
(or ( <= ( + T5 85 ) T6 ) ( <= ( + T6 77 ) T5 ) )
(or ( <= ( + T5 163 )  ( + T6 77 ) ) ( <= ( + T6 168 )( + T5 85 ) ) )
(or ( <= ( + T5 217 )  ( + T6 168 ) ) ( <= ( + T6 181 )( + T5 163 ) ) )
(or ( <= ( + T5 275 )  ( + T6 181 ) ) ( <= ( + T6 266 )( + T5 217 ) ) )
( <= ( + T1 211 ) Z)
( <= ( + T2 256 ) Z)
( <= ( + T3 139 ) Z)
( <= ( + T4 186 ) Z)
( <= ( + T5 275 ) Z)
( <= ( + T6 266 ) Z)
( >= T1 0 )
( >= T2 0 )
( >= T3 0 )
( >= T4 0 )
( >= T5 0 )
( >= T6 0 )
) )
(minimize Z)
(check-sat)